
Log started (V20.1.0.0) Sun Aug  7 17:38:16 2022


Problem 'pp.lp' read.
Read time = 0.00 sec. (0.00 ticks)
Version identifier: 20.1.0.0 | 2020-11-10 | 9bedb6d68
Implied bounds make row 'r1_1' infeasible.
Presolve time = 0.00 sec. (0.00 ticks)
Presolve - Infeasible.
Solution time =    0.00 sec.
Deterministic time = 0.00 ticks  (0.36 ticks/sec)

Log started (V20.1.0.0) Sun Aug  7 17:40:56 2022


Problem 'pd.lp' read.
Read time = 0.00 sec. (0.00 ticks)
Version identifier: 20.1.0.0 | 2020-11-10 | 9bedb6d68
Tried aggregator 1 time.
LP Presolve eliminated 2 rows and 2 columns.
All rows and columns eliminated.
Presolve time = 0.00 sec. (0.00 ticks)

Dual simplex - Optimal:  Objective =  1.2000000000e+01
Solution time =    0.00 sec.  Iterations = 0 (0)
Deterministic time = 0.00 ticks  (1.35 ticks/sec)


Variable Name           Solution Value
w2                            4.000000
All other variables matching '*' are 0.
